12247.0 1398617.0 
12244.0 1399145.0 
12264.0 1398388.0 
12232.0 1404175.0 
12289.0 1384226.0 
12141.0 1410217.0 
12354.0 1376079.0 
12358.0 1376006.0 
12272.0 1388090.0 
12235.0 1401468.0 
12269.0 1396590.0 
12440.0 1374505.0 
12233.0 1402861.0 
12273.0 1385015.0 
12330.0 1377834.0 
12266.0 1397508.0 
12178.0 1408599.0 
12523.0 1373612.0 
12511.0 1374420.0 
12300.0 1377946.0 
12407.0 1375339.0 
